SiC Unit Cell                           
1
13.08000000 0.00000000 0.00000000
0.00000000 13.08000000 0.00000000
0.00000000 0.00000000 13.08000000
C Si H
96 102 28
Direct
-0.00005949 0.00005949 0.00014222
0.16469783 0.16493197 0.00040565
0.16521931 0.00007133 0.16652804
-0.00212158 0.16668281 0.16688439
0.33278030 0.00026041 0.00121936
0.66703183 0.00232978 -0.00064677
0.49840985 0.16619231 -0.00035292
0.83176053 0.16823947 -0.00093877
0.49895205 0.00007861 0.16604472
0.83331719 0.00212158 0.16688439
0.32993483 0.16518278 0.16522580
-0.00232978 0.33296817 -0.00064677
-0.00026041 0.66721970 0.00121936
0.16532800 0.49892206 0.00124142
0.16672798 0.83327202 -0.00004955
0.16280674 0.33094832 0.16618271
0.16450573 0.66760780 0.16397948
-0.00007861 0.50104795 0.16604472
-0.00007133 0.83478069 0.16652804
0.33002328 0.33057168 0.00088324
0.33393937 0.66606063 0.00049682
0.66560441 0.33439559 0.00046815
0.66942832 0.66997672 0.00088324
0.49934389 0.50065611 0.00079394
0.50107794 0.83467200 0.00124142
0.83380769 0.50159015 -0.00035292
0.83506803 0.83530217 0.00040565
0.50759980 0.67323866 0.16193838
0.83481722 0.67006517 0.16522580
0.33239220 0.83549427 0.16397948
0.66905168 0.83719326 0.16618271
-0.00046844 0.00046844 0.33377070
0.00613372 -0.00613372 0.66729154
0.16554081 0.16602566 0.33353922
0.16449712 0.16259688 0.66824971
0.16748641 -0.00194867 0.49997074
0.16739535 -0.00284658 0.83334644
0.00291489 0.16429301 0.50182613
0.00012354 0.16521994 0.83463977
0.33273813 0.00098266 0.33148853
0.33244419 -0.00312672 0.66714443
0.66664491 0.00057552 0.33439995
0.66939652 0.00144988 0.66789470
0.49429858 0.15961416 0.66777510
0.84361854 0.15638146 0.66980304
0.50046856 0.00074325 0.49994395
0.50040087 0.00039228 0.83542331
0.83570699 -0.00291489 0.50182613
0.83478006 -0.00012354 0.83463977
0.33098804 0.16465302 0.50049685
0.33140812 0.16225333 0.83634738
0.66551329 0.17005936 0.82927826
-0.00057552 0.33335509 0.33439995
-0.00144988 0.33060348 0.66789470
-0.00098266 0.66726187 0.33148853
0.00312672 0.66755581 0.66714443
0.16424485 0.49936439 0.33054721
0.15914456 0.49308441 0.66971454
0.16430341 0.83569659 0.33257272
0.17616523 0.82383477 0.66517046
0.16640931 0.33281406 0.50122599
0.16405454 0.33073166 0.83596166
0.16234019 0.66358099 0.49588268
0.16557989 0.66497187 0.83711250
-0.00074325 0.49953144 0.49994395
-0.00039228 0.49959913 0.83542331
0.00194867 0.83251359 0.49997074
0.00284658 0.83260465 0.83334644
0.32528328 0.32016766 0.67497265
0.66975475 0.67123119 0.33088859
0.67983234 0.67471672 0.67497265
0.50063561 0.83575515 0.33054721
0.50691559 0.84085544 0.66971454
0.84038584 0.50570142 0.66777510
0.83397434 0.83445919 0.33353922
0.83740312 0.83550288 0.66824971
0.49491306 0.33225063 0.83923689
0.50313389 0.66854929 0.83635363
0.82994064 0.33448671 0.82927826
0.83534698 0.66901196 0.50049685
0.83774667 0.66859188 0.83634738
0.33145071 0.49686611 0.83635363
0.33641901 0.83765981 0.49588268
0.33502813 0.83442011 0.83711250
0.66774937 0.50508694 0.83923689
0.66718594 0.83359069 0.50122599
0.66926834 0.83594546 0.83596166
0.49332789 0.32851300 0.16370815
0.83752162 0.34098795 0.16242344
0.32676134 0.49240020 0.16193838
0.67148700 0.50667211 0.16370815
0.49397230 0.16436019 0.32923774
0.83829398 0.16170602 0.34245565
0.67276647 0.16184033 0.50704508
0.31973106 0.68026894 0.32856049
0.83563981 0.50602770 0.32923774
0.08172584 0.08308518 0.08397266
0.24675066 0.24826076 0.08359048
0.08120924 0.24900805 0.25052873
0.24827691 0.08315498 0.24936180
0.41557445 0.08336633 0.08357410
0.74966258 0.08467101 0.08308896
0.58064824 0.24995233 0.08167304
0.91532899 0.25033742 0.08308896
0.41141039 0.24761692 0.24787776
0.58098646 0.08190962 0.25037003
0.91637445 0.08362555 0.25083958
0.08119557 0.41596007 0.08334996
0.08225386 0.75092890 0.08259217
0.24887833 0.58339881 0.08303636
0.24907110 0.91774614 0.08259217
0.08216889 0.58421278 0.24813287
0.08184195 0.91815805 0.25005876
0.24564756 0.41369020 0.24889127
0.24369617 0.75630383 0.24319721
0.41435634 0.41471129 0.08109991
0.41660119 0.75112167 0.08303636
0.75004767 0.41935176 0.08167304
0.75173924 0.75324934 0.08359048
0.58528871 0.58564366 0.08109991
0.58403993 0.91880443 0.08334996
0.91663367 0.58442555 0.08357410
0.91691482 0.91827416 0.08397266
0.41578722 0.91783111 0.24813287
0.75238308 0.58858961 0.24787776
0.75099195 0.91879076 0.25052873
0.58630980 0.75435244 0.24889127
0.91809038 0.41901354 0.25037003
0.91684502 0.75172309 0.24936180
0.08411106 0.08190174 0.41709184
0.08338595 0.08009065 0.75130873
0.24862495 0.24897145 0.41758948
0.24449538 0.24187481 0.75579851
0.08350184 0.24799269 0.58535169
0.08144364 0.24838296 0.91845815
0.24901814 0.08072782 0.58447290
0.24862090 0.08070347 0.91830404
0.41527262 0.08294356 0.41705004
0.41359695 0.07889239 0.75200339
0.75147838 0.07951171 0.41983452
0.75231970 0.08292022 0.75089334
0.56918184 0.24763750 0.75065927
0.92048829 0.24852162 0.41983452
0.91707978 0.24768030 0.75089334
0.41047168 0.24471562 0.58854655
0.41276418 0.24752322 0.91932188
0.76451614 0.23548386 0.58568673
0.74783578 0.25216422 0.91496941
0.58295317 0.08225634 0.58550014
0.58299596 0.08536817 0.91601525
0.92335636 0.07664364 0.58440474
0.91642931 0.08357069 0.91779932
0.08340379 0.41706180 0.41732853
0.07887537 0.41228250 0.75299262
0.08169035 0.74958835 0.41437260
0.08704140 0.74811484 0.75012090
0.24617822 0.58929552 0.40616678
0.23911832 0.57174848 0.75751734
0.25041165 0.91830965 0.41437260
0.25188516 0.91295860 0.75012090
0.08308966 0.58134272 0.58347227
0.08191902 0.58263542 0.91967855
0.08903344 0.91096656 0.58326191
0.08385189 0.91614811 0.91705791
0.24628482 0.40689086 0.59533597
0.24746255 0.41392050 0.91931532
0.25566455 0.74433545 0.56813078
0.25083291 0.74916709 0.91774644
0.40632781 0.40589372 0.75380301
0.41070448 0.75382178 0.40616678
0.42825152 0.76088168 0.75751734
0.75236250 0.43081816 0.75065927
0.75102855 0.75137505 0.41758948
0.75812519 0.75550462 0.75579851
0.59410628 0.59367219 0.75380301
0.58293820 0.91659621 0.41732853
0.58771750 0.92112463 0.75299262
0.91705644 0.58472738 0.41705004
0.92110761 0.58640305 0.75200339
0.91809826 0.91588894 0.41709184
0.91990935 0.91661405 0.75130873
0.41682397 0.58317603 0.91618029
0.41865728 0.91691034 0.58347227
0.41736458 0.91808098 0.91967855
0.75528438 0.58952832 0.58854655
0.75247678 0.58723582 0.91932188
0.75200731 0.91649816 0.58535169
0.75161704 0.91855636 0.91845815
0.58216749 0.41783251 0.91720503
0.59310914 0.75371518 0.59533597
0.58607950 0.75253745 0.91931532
0.91774366 0.41704683 0.58550014
0.91463183 0.41700404 0.91601525
0.91927218 0.75098186 0.58447290
0.91929653 0.75137910 0.91830404
0.65901205 0.16247838 0.16242344
0.83815967 0.32723353 0.50704508
0.32876881 0.33024525 0.33088859
0.70109961 0.21326039 0.21333059
0.78673961 0.29890039 0.21333059
0.78695019 0.21304981 0.30146947
0.53836049 0.37454243 0.21756409
0.62545757 0.46163951 0.21756409
0.53929375 0.21863692 0.37458659
0.63154135 0.21981778 0.46246663
0.78136308 0.46070625 0.37458659
0.78018222 0.36845865 0.46246663
0.58629506 0.32807536 0.67277349
0.70909965 0.29090035 0.66417425
0.67192464 0.41370494 0.67277349
0.45835419 0.45839452 0.66979376
0.54160548 0.54164581 0.66979376
0.47501557 0.31723694 0.52714546
0.68276306 0.52498443 0.52714546
0.29419585 0.62614456 0.67916593
0.33700104 0.66299896 0.56670376
0.37385544 0.70580415 0.67916593
0.46861787 0.66692450 0.44748273
0.53111607 0.67043195 0.55240630
0.33307550 0.53138213 0.44748273
0.32956805 0.46888393 0.55240630
0.46726352 0.62157517 0.21362632
0.37842483 0.53273648 0.21362632
0.37074089 0.62925911 0.28730662
0.37846130 0.37993099 0.37788588
0.62006901 0.62153870 0.37788588
